WARNING: for repeatability, setting FPU to use double precision
============================[ Problem Statistics ]=============================
|                                                                             |
|  Number of variables:         76707                                         |
|  Number of clauses:          163276                                         |
|  Parse time:                   0.04 s                                       |
|                                                                             |
c ============================[ Search Statistics ]==============================
c | Conflicts |          ORIGINAL         |          LEARNT          | Progress |
c |           |    Vars  Clauses Literals |    Limit  Clauses Lit/Cl |          |
c ===============================================================================
We had 191 decisions of which only 0 were on extended
We had 190580 decisions of which only 0 were on extended
c Switched to VSIDS.
We had 328438 decisions of which only 0 were on extended
c Switched to LRB.
We had 415737 decisions of which only 0 were on extended
We had 473632 decisions of which only 0 were on extended
c Switched to VSIDS.
We had 529696 decisions of which only 0 were on extended
We had 545986 decisions of which only 0 were on extended
c Switched to LRB.
We had 564846 decisions of which only 0 were on extended
We had 582562 decisions of which only 0 were on extended
c Switched to VSIDS.
We had 598299 decisions of which only 0 were on extended
We had 612561 decisions of which only 0 were on extended
We had 626510 decisions of which only 0 were on extended
c Switched to LRB.
We had 640342 decisions of which only 0.000156167 were on extended
We had 655350 decisions of which only 0.00030518 were on extended
c Switched to VSIDS.
We had 669365 decisions of which only 0.000298791 were on extended
We had 682240 decisions of which only 0.000293152 were on extended
We had 694244 decisions of which only 0.000432125 were on extended
c Switched to LRB.
We had 707867 decisions of which only 0.000847617 were on extended
We had 721175 decisions of which only 0.000970638 were on extended
c Switched to VSIDS.
Window full
Continue
We had 733980 decisions of which only 0.000953704 were on extended
We had 746249 decisions of which only 0.000938025 were on extended
We had 759564 decisions of which only 0.00131654 were on extended
We had 771726 decisions of which only 0.00375781 were on extended
We had 783668 decisions of which only 0.0127605 were on extended
We had 795656 decisions of which only 0.0248851 were on extended
c Switched to LRB.
We had 808354 decisions of which only 0.025855 were on extended
We had 820150 decisions of which only 0.0259709 were on extended
c ===============================================================================
restarts                  : 598
conflicts                 : 268308         (1238 /sec)
decisions                 : 860085         (0.00 % random) (3970 /sec)
propagations              : 679228963      (3135168 /sec)
conflict literals         : 13341449       (49.38 % deleted)

conflicts w/ DIP found    : 185532         (69.15 % of conflicts)
conflicts w/ dangerous DIP: 0              (0.00 % of conflicts)
conflicts w/ DIP-learning : 64             (0.02 % of conflicts)
decisions on ext vars     : 213            (0.02 % of decisions)
total ext vars            : 31          
tried delete ext vars     : 0           
deleted ext vars          : 0           
max ext vars              : 31          

Memory used               : 74.00 MB
CPU time                  : 216.648 s
DIP computation time      : 4.16759 s (1.92 % of total time)
ER_sel time               : 0.29328 s
ER_add time               : 0.000309 s
ER_delC time              : 0 s
ER_delV time              : 0 s
ER_sub time               : 0.446253 s
ER_stat time              : 0 s

SATISFIABLE
